400
[42,50,57,59,63,65,67,68,71,74,76,78,81,82,85,91,92,93,94,95,97,98,99,104,105,106,121,123,124,126,127,130,137,141,142,145,152,157,161,165,173,181,184,187,190,193,197,202,204,206,210,214,217,218,227,232,234,248,254,257,261,265,269,271,273,274,277,278,282,292,293,294,296,298,300,301,302,303,304,309,313,314,320]
[1,1,1,1,1,2,1,2,1,1,1,2,1,1,2,2,1,2,2,1,1,1,1,1,1,1,1,1,1,1,3,2,1,1,2,1,2,1,1,2,1,1,1,2,1,1,1,1,1,1,1,1,1,1,1,1,1,1,1,1,1,1,1,1,2,1,1,1,1,2,1,1,1,1,1,1,1,1,2,1,1,1,1]
